Route #1: 4 34
Route #2: 46 7 35 8
Route #3: 47 36 37 20
Route #4: 15 5 29 45
Route #5: 48 30 2
Route #6: 49 24 18 50
Route #7: 25 9 39
Route #8: 31 10
Route #9: 38 11
Route #10: 53 14 19
Route #11: 54 13 27 52
Route #12: 21 28 22
Route #13: 42 41 43 23 1
Route #14: 16 33 6
Route #15: 51 3 44 32
Route #16: 40 12 17
Route #17: 26
Cost 988